
%FILE DATA:	Soccer Computational Problem for MiniZinc Models	%
%AUTHOR:	Jack Wall	%
%CONTACT:  	116397063@umail.ucc.ie			%
%LAST UPDATE:	03/12/2020, 11:03:48						%
%DESCRIPTION: 	140 games played with 42 games left				%


n=14; %number of teams

%Games to play
games=[|14,8|7,9|12,9|5,10|6,12|8,7|7,1|8,10|1,5|14,9|12,3|4,8|12,7|11,7|8,9|14,1|6,5|10,2|8,1|5,9|1,13|5,14|1,2|14,2|11,12|14,12|2,14|7,13|3,14|11,2|10,13|8,13|8,14|1,12|10,6|1,7|10,5|2,4|9,7|9,8|2,13|4,7|];

%Initial points
iPoints=[19,22,31,25,30,21,19,30,26,35,34,26,28,21];

%POSITION CONSTRAINTS
% [|teamID, operator, position|...]
% operators index:
%  1 for =  operator
%  2 for >  operator
%  3 for >= operator
%  4 for <  operator
%  5 for <= operator
positionConstraints=[|10,5,1|11,1,2|8,1,3|5,1,4|];